data;


param d:= 100;
param r:=5;
param p:=0.840000;
param M:=1000;
param U:=
         1         1        1.025902e+00
         2         1       -1.101787e+00
         3         1        1.437695e-01
         4         1       -1.823616e+00
         5         1        1.511924e-01
         6         1       -6.545681e-01
         7         1        7.692732e-01
         8         1       -5.957301e-01
         9         1        6.822401e-01
        10         1        8.820112e-02
        11         1       -3.436449e-01
        12         1       -3.054858e-01
        13         1       -4.448432e-02
        14         1       -3.650067e-01
        15         1        8.399329e-01
        16         1       -1.698537e+00
        17         1       -5.575811e-01
        18         1        6.645355e-01
        19         1        1.325121e+00
        20         1       -1.091659e+00
        21         1        2.845463e-02
        22         1       -2.143061e+00
        23         1       -1.992894e+00
        24         1       -1.274004e+00
        25         1        6.327048e-01
        26         1        1.238407e-01
        27         1        4.642064e-01
        28         1        8.768803e-01
        29         1       -2.185706e+00
        30         1        3.359889e-01
        31         1        9.887596e-01
        32         1       -6.894229e-01
        33         1        7.654708e-01
        34         1       -1.798097e+00
        35         1        6.452730e-01
        36         1        1.640000e+00
        37         1       -1.274253e+00
        38         1        2.171466e+00
        39         1        3.177778e-01
        40         1        5.762516e-01
        41         1       -6.502545e-01
        42         1       -3.907563e-01
        43         1       -2.648659e-01
        44         1        3.330470e-01
        45         1       -5.752251e-01
        46         1       -5.688486e-01
        47         1        6.681583e-01
        48         1        6.963020e-01
        49         1        2.539340e-01
        50         1        1.900303e-02
        51         1       -2.656228e-01
        52         1       -7.027901e-01
        53         1        1.662520e+00
        54         1       -5.211147e-01
        55         1       -2.400374e-01
        56         1        1.202879e+00
        57         1       -7.789558e-02
        58         1        8.224274e-01
        59         1       -1.594211e-01
        60         1        9.840042e-01
        61         1        1.417851e+00
        62         1       -1.171649e+00
        63         1        9.675837e-01
        64         1       -4.830780e-01
        65         1        3.164471e-01
        66         1        6.464786e-01
        67         1        2.876931e-01
        68         1        7.842982e-01
        69         1        5.620785e-01
        70         1       -1.371744e+00
        71         1       -4.420467e-01
        72         1        1.049604e+00
        73         1       -1.806994e-01
        74         1        1.124642e+00
        75         1        1.119433e+00
        76         1       -6.001677e-01
        77         1        6.622220e-01
        78         1        3.192477e-01
        79         1       -8.005727e-01
        80         1       -1.875642e-01
        81         1       -1.427161e+00
        82         1        1.368747e+00
        83         1       -1.084656e+00
        84         1       -8.783051e-01
        85         1       -1.664676e+00
        86         1       -7.758704e-01
        87         1       -2.548676e-01
        88         1        8.430216e-01
        89         1       -2.387172e+00
        90         1        1.648882e+00
        91         1        4.099831e-01
        92         1       -6.479310e-01
        93         1        2.529778e+00
        94         1        1.484155e+00
        95         1        1.050167e+00
        96         1        2.993708e-02
        97         1       -1.269158e+00
        98         1        5.015240e-01
        99         1        1.052837e-02
       100         1       -7.502105e-01
         1         2        5.261816e-01
         2         2       -6.143434e-01
         3         2       -5.839109e-01
         4         2       -2.616516e-01
         5         2       -2.955081e-01
         6         2        8.913954e-01
         7         2        1.211181e+00
         8         2        6.660609e-01
         9         2       -4.730982e-01
        10         2       -1.566278e+00
        11         2        7.644067e-01
        12         2        8.288939e-01
        13         2        7.844174e-02
        14         2        8.440622e-01
        15         2        7.798678e-01
        16         2        1.405104e+00
        17         2       -1.952291e+00
        18         2       -2.189906e-01
        19         2        1.024135e+00
        20         2        8.689517e-01
        21         2        2.919459e-01
        22         2       -1.780001e+00
        23         2        1.027351e+00
        24         2       -1.018460e+00
        25         2       -8.009883e-01
        26         2        8.223509e-01
        27         2        4.829680e-01
        28         2       -1.265851e+00
        29         2        5.972253e-01
        30         2        3.328004e-01
        31         2       -1.660079e+00
        32         2        1.117664e+00
        33         2       -8.223107e-01
        34         2        2.300172e-02
        35         2        3.431084e-01
        36         2        2.905692e-01
        37         2       -2.324566e+00
        38         2        3.619603e-01
        39         2       -1.711059e+00
        40         2        2.152046e+00
        41         2       -1.016508e+00
        42         2        2.736880e-01
        43         2        2.383247e+00
        44         2       -3.509950e-01
        45         2        9.472882e-01
        46         2       -8.085263e-01
        47         2       -2.574489e+00
        48         2       -6.321108e-02
        49         2       -2.886522e-01
        50         2        5.604011e-01
        51         2        2.268897e-01
        52         2        2.466433e-01
        53         2       -1.174517e+00
        54         2       -1.858750e-01
        55         2       -6.401547e-01
        56         2        1.184484e+00
        57         2        1.152195e-01
        58         2       -2.844231e+00
        59         2        1.248075e+00
        60         2       -2.463751e-01
        61         2       -2.100134e-01
        62         2       -2.375119e-01
        63         2       -8.185316e-01
        64         2       -4.532647e-01
        65         2       -2.774859e-01
        66         2        2.698460e-02
        67         2       -7.243994e-01
        68         2       -2.697039e-01
        69         2       -1.639524e+00
        70         2       -2.108047e-02
        71         2       -4.948288e-01
        72         2        6.776175e-01
        73         2       -9.115906e-01
        74         2        1.107914e+00
        75         2       -1.387164e-01
        76         2        4.040836e-01
        77         2       -1.644824e-01
        78         2        1.070416e+00
        79         2        2.439759e-01
        80         2        5.328740e-02
        81         2       -2.342333e-01
        82         2        1.054397e+00
        83         2       -7.087396e-01
        84         2        6.325604e-01
        85         2        1.691521e+00
        86         2        1.785326e-01
        87         2        7.212928e-01
        88         2       -3.496192e-01
        89         2       -9.655378e-03
        90         2       -4.312088e-01
        91         2       -9.456452e-01
        92         2        4.546546e-01
        93         2       -3.002538e-01
        94         2       -2.572868e-02
        95         2       -3.792608e-01
        96         2        8.968939e-02
        97         2        1.117693e-01
        98         2       -8.365316e-01
        99         2        1.190942e+00
       100         2       -5.919444e-01
         1         3       -7.157107e-01
         2         3       -4.256711e-01
         3         3       -1.363764e+00
         4         3       -5.043087e-01
         5         3        6.756405e-02
         6         3       -1.681376e+00
         7         3       -2.179956e-01
         8         3       -1.563721e+00
         9         3        4.229307e-01
        10         3        6.762908e-01
        11         3       -4.559583e-01
        12         3        2.027370e-01
        13         3       -1.328312e+00
        14         3       -6.211240e-01
        15         3        9.345166e-01
        16         3        4.539161e-01
        17         3       -6.344853e-01
        18         3       -9.547113e-01
        19         3       -6.440712e-01
        20         3       -1.451054e+00
        21         3        2.853032e+00
        22         3        9.043081e-02
        23         3        1.332009e+00
        24         3       -1.194825e+00
        25         3       -6.754458e-01
        26         3        7.314746e-01
        27         3        1.590503e+00
        28         3       -1.588399e+00
        29         3       -4.466665e-01
        30         3        1.125872e-01
        31         3        3.615184e-01
        32         3        4.066300e-01
        33         3       -9.418280e-01
        34         3       -1.754353e-01
        35         3        1.375941e+00
        36         3        2.992198e-01
        37         3       -2.724200e+00
        38         3        8.370306e-01
        39         3       -1.472130e+00
        40         3       -2.617280e+00
        41         3       -1.926391e+00
        42         3        2.961916e-02
        43         3        1.841262e-01
        44         3        2.084341e+00
        45         3        5.344340e-01
        46         3       -6.219747e-01
        47         3       -5.507289e-01
        48         3        1.228743e-01
        49         3        2.934001e-01
        50         3       -1.033054e+00
        51         3        6.582164e-01
        52         3       -3.397731e-01
        53         3       -1.186365e-01
        54         3       -6.380100e-01
        55         3        2.638162e-01
        56         3       -1.470894e+00
        57         3       -1.706700e+00
        58         3       -5.729489e-01
        59         3       -1.008654e+00
        60         3        2.320005e+00
        61         3        2.472210e-02
        62         3        5.201484e-02
        63         3       -4.211463e-01
        64         3       -1.741394e+00
        65         3       -3.657469e-01
        66         3        4.265253e-01
        67         3        3.251279e-02
        68         3        2.734325e-01
        69         3       -5.270490e-01
        70         3        4.946308e-01
        71         3       -2.799620e-01
        72         3        3.404541e-01
        73         3        1.287577e+00
        74         3        2.214953e-01
        75         3       -6.584182e-01
        76         3       -2.733795e-01
        77         3        1.202396e+00
        78         3       -1.110349e-01
        79         3        6.586108e-01
        80         3        6.103612e-01
        81         3       -1.112852e+00
        82         3        6.400868e-01
        83         3        6.451443e-01
        84         3        3.378992e-01
        85         3        1.317189e+00
        86         3       -1.055146e+00
        87         3        1.381665e-01
        88         3        5.148001e-01
        89         3       -7.294486e-01
        90         3       -7.060325e-02
        91         3        1.440673e+00
        92         3       -2.853491e-01
        93         3        1.169783e+00
        94         3       -5.975600e-01
        95         3        1.165025e+00
        96         3       -1.950710e+00
        97         3       -6.686051e-02
        98         3        4.800100e-01
        99         3        1.782376e+00
       100         3        2.588188e-01
         1         4        4.503307e-01
         2         4       -4.390156e-02
         3         4       -1.168621e+00
         4         4       -1.510896e+00
         5         4        1.369011e-01
         6         4        8.075705e-01
         7         4        5.271542e-01
         8         4        4.529391e-01
         9         4        2.116985e-01
        10         4        5.046527e-01
        11         4        5.613513e-01
        12         4       -1.282522e+00
        13         4        8.655931e-01
        14         4       -1.703930e+00
        15         4        5.689215e-01
        16         4        4.219123e-01
        17         4       -1.192911e-01
        18         4        3.303919e-02
        19         4       -1.087619e-01
        20         4        2.040587e-01
        21         4       -1.155975e+00
        22         4        1.402377e+00
        23         4        7.155711e-01
        24         4       -2.501309e-01
        25         4       -1.622333e+00
        26         4        4.008673e-01
        27         4       -8.059594e-01
        28         4       -6.138007e-01
        29         4       -1.039358e+00
        30         4       -2.815188e-01
        31         4        4.675360e-01
        32         4       -7.406820e-01
        33         4        4.205508e-02
        34         4       -1.144658e+00
        35         4       -1.967563e+00
        36         4       -1.077568e-01
        37         4       -1.347889e+00
        38         4        9.395381e-01
        39         4       -1.377809e-01
        40         4        4.616889e-01
        41         4        6.221684e-03
        42         4        1.056998e-01
        43         4        1.469898e+00
        44         4       -8.286281e-01
        45         4       -1.063252e+00
        46         4       -2.815011e-01
        47         4       -1.714582e-02
        48         4       -1.398086e+00
        49         4       -1.769762e+00
        50         4        3.348404e-01
        51         4       -9.330342e-01
        52         4       -1.246211e+00
        53         4       -4.095515e-01
        54         4       -8.222707e-01
        55         4       -1.587163e+00
        56         4        1.996762e+00
        57         4       -1.744837e-01
        58         4        8.285968e-01
        59         4        7.689853e-01
        60         4       -5.782670e-01
        61         4        6.879020e-01
        62         4       -1.480351e+00
        63         4       -5.995718e-01
        64         4       -2.808010e-02
        65         4       -1.498367e-01
        66         4       -1.095569e+00
        67         4       -8.495575e-03
        68         4        5.940854e-01
        69         4        1.509028e-03
        70         4        1.860569e+00
        71         4        1.110994e+00
        72         4       -1.133654e+00
        73         4        8.688952e-01
        74         4       -1.983585e+00
        75         4       -2.561816e+00
        76         4        6.688075e-01
        77         4       -1.396542e+00
        78         4        1.595031e+00
        79         4        3.981495e-01
        80         4       -1.092277e+00
        81         4       -3.941494e-01
        82         4        2.715463e-01
        83         4       -4.485079e-01
        84         4       -1.460028e+00
        85         4        8.517165e-01
        86         4       -1.156260e+00
        87         4        2.930642e-01
        88         4        6.108692e-01
        89         4       -2.243838e+00
        90         4       -5.718568e-01
        91         4       -8.793462e-01
        92         4       -1.726544e+00
        93         4       -1.397213e+00
        94         4        2.002618e+00
        95         4        7.406835e-01
        96         4        4.388486e-01
        97         4        5.519224e-01
        98         4       -1.034320e+00
        99         4       -1.004147e+00
       100         4        2.326374e-01
         1         5       -1.060898e-01
         2         5       -1.500779e-01
         3         5        1.130799e-01
         4         5       -1.091577e+00
         5         5       -1.164163e+00
         6         5       -1.014537e-01
         7         5        1.911663e+00
         8         5        1.166079e+00
         9         5        1.236325e+00
        10         5       -2.837162e-01
        11         5        6.747195e-01
        12         5        6.297629e-01
        13         5       -1.626399e+00
        14         5        1.930396e+00
        15         5       -5.623320e-01
        16         5       -5.366787e-01
        17         5        1.283622e-01
        18         5       -6.387166e-01
        19         5        7.929296e-01
        20         5       -4.202185e-01
        21         5        4.045365e-01
        22         5       -4.637966e-01
        23         5       -1.191992e+00
        24         5       -1.349071e+00
        25         5       -1.112375e+00
        26         5       -8.355053e-01
        27         5       -1.317570e+00
        28         5        1.338488e+00
        29         5        1.050438e+00
        30         5        6.235645e-01
        31         5        1.746721e-01
        32         5        1.517472e+00
        33         5        5.483781e-01
        34         5        1.915672e+00
        35         5       -1.248215e+00
        36         5        2.887676e+00
        37         5        7.191268e-01
        38         5        5.944696e-01
        39         5       -8.939848e-01
        40         5       -7.227367e-02
        41         5        1.406525e-01
        42         5       -1.281613e+00
        43         5        6.710746e-01
        44         5        1.497665e+00
        45         5        1.446593e+00
        46         5       -8.180723e-02
        47         5        1.528332e+00
        48         5        2.491733e-01
        49         5        3.746777e-02
        50         5        1.717562e+00
        51         5        7.093373e-01
        52         5       -1.910335e-01
        53         5        1.178925e+00
        54         5        8.091395e-01
        55         5       -4.854453e-01
        56         5       -1.621005e+00
        57         5        1.494922e+00
        58         5        1.960631e-01
        59         5       -1.263940e+00
        60         5        4.467633e-01
        61         5        5.967054e-02
        62         5        1.830887e+00
        63         5       -1.624754e+00
        64         5       -2.273256e+00
        65         5        3.544235e-01
        66         5        1.125425e+00
        67         5        1.152081e+00
        68         5       -1.416502e+00
        69         5       -2.143039e-01
        70         5        2.508366e-01
        71         5        9.782848e-02
        72         5       -9.407447e-01
        73         5       -9.911314e-01
        74         5        1.757820e-01
        75         5        1.367608e+00
        76         5        1.328268e+00
        77         5       -5.903971e-01
        78         5        1.938840e+00
        79         5       -6.445622e-01
        80         5       -1.289883e+00
        81         5       -1.243939e+00
        82         5        9.212956e-01
        83         5        5.631650e-01
        84         5        4.602760e-01
        85         5        1.263465e+00
        86         5        1.821030e+00
        87         5       -2.498325e+00
        88         5       -9.513195e-01
        89         5        9.425259e-01
        90         5        1.869597e+00
        91         5       -2.358478e+00
        92         5        8.645159e-02
        93         5       -1.186761e+00
        94         5       -1.104935e+00
        95         5        9.110035e-01
        96         5        8.782599e-01
        97         5       -6.404458e-02
        98         5        3.727457e-01
        99         5        1.825865e+00
       100         5       -6.364831e-02
;

param theta:=
    1        2.216819e-01
    2        7.775611e-01
    3        4.015732e-02
    4       -7.366964e-01
    5        4.180354e-01
;
param X_true:=
    1        2.308553e-01
    2       -7.715204e-01
    3        4.321343e-01
    4        2.944656e-02
    5       -7.808122e-01
    6       -1.557822e-01
    7        1.513479e+00
    8        4.770591e-01
    9        1.623786e-01
   10       -1.661899e+00
   11        3.705791e-01
   12        1.792946e+00
   13       -1.321220e+00
   14        2.613576e+00
   15        1.766541e-01
   16        1.977451e-01
   17       -1.525340e+00
   18       -3.528016e-01
   19        1.476010e+00
   20        5.071643e-02
   21        1.369116e+00
   22       -3.081713e+00
   23       -6.149152e-01
   24       -1.502221e+00
   25        2.202687e-01
   26        5.074199e-02
   27        5.846744e-01
   28        1.573493e-01
   29        1.166628e+00
   30        8.058415e-01
   31       -1.329497e+00
   32        1.914204e+00
   33       -3.105687e-01
   34        1.255763e+00
   35        1.392360e+00
   36        1.887895e+00
   37       -9.065684e-01
   38        3.530089e-01
   39       -1.591497e+00
   40        1.324939e+00
   41       -9.567191e-01
   42       -4.862386e-01
   43        9.985016e-01
   44        1.119901e+00
   45        2.018150e+00
   46       -6.059843e-01
   47       -1.223347e+00
   48        1.243841e+00
   49        1.162094e+00
   50        8.686672e-01
   51        1.127894e+00
   52        8.610491e-01
   53        2.453357e-01
   54        6.604337e-01
   55        4.257611e-01
   56       -1.020988e+00
   57        7.567179e-01
   58       -2.581353e+00
   59       -2.004933e-01
   60        7.325492e-01
   61       -3.289845e-01
   62        1.414937e+00
   63       -6.753801e-01
   64       -1.461106e+00
   65        9.741209e-02
   66        1.456558e+00
   67       -9.646240e-03
   68       -1.053952e+00
   69       -1.260885e+00
   70       -1.568299e+00
   71       -1.271605e+00
   72        1.214247e+00
   73       -1.752645e+00
   74        2.653687e+00
   75        2.574035e+00
   76        2.337408e-01
   77        8.483446e-01
   78        5.350457e-01
   79       -5.226415e-01
   80        2.914325e-01
   81       -7.736327e-01
   82        1.332703e+00
   83       -2.010484e-01
   84        1.576821e+00
   85        8.984635e-01
   86        1.537526e+00
   87       -7.499305e-01
   88       -9.130566e-01
   89        1.479287e+00
   90        1.229760e+00
   91       -9.240228e-01
   92        1.506122e+00
   93        9.065962e-01
   94       -1.651713e+00
   95       -1.814389e-01
   96        4.068435e-02
   97       -6.309571e-01
   98        3.985442e-01
   99        2.502720e+00
  100       -8.131454e-01
;
param X:=
    1        3.459635e-01
    2        2.049129e+00
    3        1.106900e+00
    4        2.944656e-02
    5        2.277541e+00
    6       -1.557822e-01
    7        1.340158e+00
    8        4.770591e-01
    9       -7.237047e-01
   10       -1.661899e+00
   11       -6.248099e-01
   12        8.594907e-02
   13       -3.952101e-01
   14        2.156731e+00
   15       -5.852427e-01
   16        1.499975e+00
   17        3.422812e-01
   18       -1.310788e+00
   19       -1.273719e+00
   20        4.917421e-01
   21        2.343811e+00
   22        3.110619e-01
   23        1.850563e+00
   24       -1.070344e+00
   25        1.872162e+00
   26        5.074199e-02
   27        6.375792e-01
   28        1.092660e+00
   29        1.166628e+00
   30        7.374333e-01
   31       -5.139933e-01
   32       -6.719508e-02
   33        3.216916e-01
   34       -2.263002e-01
   35       -1.344689e+00
   36        1.114290e+00
   37       -9.065684e-01
   38       -1.036295e+00
   39       -3.073048e-01
   40        1.413685e-01
   41        7.388267e-01
   42       -1.036733e-01
   43       -5.203750e-01
   44        8.325281e-01
   45       -1.027580e-01
   46        1.474787e-01
   47       -5.835470e-01
   48       -5.158999e-02
   49        1.178203e+00
   50       -1.100522e+00
   51        1.284253e+00
   52       -1.139808e+00
   53        6.244457e-01
   54        6.893853e-02
   55       -4.953310e-01
   56        8.988502e-01
   57       -1.096750e+00
   58        7.810472e-01
   59        1.723070e+00
   60       -1.051189e-01
   61       -9.351321e-02
   62       -4.439295e-02
   63        8.229572e-01
   64       -5.712859e-01
   65       -3.054739e-01
   66       -1.026092e+00
   67        4.002969e-01
   68       -1.053952e+00
   69        1.925997e-01
   70        9.501734e-02
   71        1.090558e+00
   72       -2.744593e-01
   73       -1.844233e+00
   74        2.653687e+00
   75        2.574035e+00
   76        3.906082e-01
   77       -8.192721e-02
   78        5.350457e-01
   79       -5.226415e-01
   80       -2.159795e+00
   81       -1.068860e+00
   82        1.332703e+00
   83       -3.229941e-02
   84        7.778432e-01
   85        2.003017e+00
   86        1.111780e+00
   87        2.172551e+00
   88        1.698870e-01
   89       -1.199189e+00
   90       -7.645945e-01
   91       -9.240228e-01
   92        3.685331e-01
   93        7.761357e-01
   94       -5.662208e-01
   95        2.606211e-01
   96        4.068435e-02
   97       -8.092480e-01
   98       -2.183848e-01
   99        4.987158e-01
  100        7.221005e-01
;
param outliervec:=
    1    1
    2    1
    3    1
    4    0
    5    1
    6    0
    7    1
    8    0
    9    1
   10    0
   11    1
   12    1
   13    1
   14    1
   15    1
   16    1
   17    1
   18    1
   19    1
   20    1
   21    1
   22    1
   23    1
   24    1
   25    1
   26    0
   27    1
   28    1
   29    0
   30    1
   31    1
   32    1
   33    1
   34    1
   35    1
   36    1
   37    0
   38    1
   39    1
   40    1
   41    1
   42    1
   43    1
   44    1
   45    1
   46    1
   47    1
   48    1
   49    1
   50    1
   51    1
   52    1
   53    1
   54    1
   55    1
   56    1
   57    1
   58    1
   59    1
   60    1
   61    1
   62    1
   63    1
   64    1
   65    1
   66    1
   67    1
   68    0
   69    1
   70    1
   71    1
   72    1
   73    1
   74    0
   75    0
   76    1
   77    1
   78    0
   79    0
   80    1
   81    1
   82    0
   83    1
   84    1
   85    1
   86    1
   87    1
   88    1
   89    1
   90    1
   91    0
   92    1
   93    1
   94    1
   95    1
   96    0
   97    1
   98    1
   99    1
  100    1
;